NAME: Random_75_2
ELLAPSED_TIME_(ms): 0
TOUR_SIZE: 2159.1465
TOUR_SECTION
0
27
42
2
13
9
32
52
19
36
62
72
10
59
38
39
4
44
12
49
26
29
14
17
28
63
23
73
60
20
21
45
64
8
24
15
53
67
1
43
7
68
57
58
11
16
54
35
33
34
18
22
61
71
5
69
41
40
50
30
66
31
55
3
56
46
47
70
65
6
25
37
48
74
51
0
EOF
